
Gurobi 9.1.2 (win64) logging started Fri Dec 10 14:44:38 2021

Gurobi Optimizer version 9.1.2 build v9.1.2rc0 (win64)
Thread count: 8 physical cores, 8 logical processors, using up to 8 threads
Optimize a model with 1 rows, 500 columns and 499 nonzeros
Model fingerprint: 0xae9ef3a8
Variable types: 1 continuous, 499 integer (499 binary)
Coefficient statistics:
  Matrix range     [1e+00, 1e+01]
  Objective range  [1e+00, 1e+00]
  Bounds range     [5e+02, 5e+02]
  RHS range        [1e+01, 1e+01]
Presolve time: 0.00s
Presolved: 1 rows, 500 columns, 499 nonzeros
Variable types: 1 continuous, 499 integer (499 binary)

Root simplex log...

Iteration    Objective       Primal Inf.    Dual Inf.      Time
       0   -4.6591264e+02   3.453384e-01   0.000000e+00     14s
       6   -3.5693679e+02   0.000000e+00   0.000000e+00     14s

Root relaxation: objective -3.569368e+02, 6 iterations, 0.00 seconds

    Nodes    |    Current Node    |     Objective Bounds      |     Work
 Expl Unexpl |  Obj  Depth IntInf | Incumbent    BestBd   Gap | It/Node Time

     0     0 -356.93679    0    1          - -356.93679      -     -   13s
H    0     0                       0.7580646 -356.93679      -     -   13s
H    0     0                       0.7525239 -356.93679      -     -   14s
     0     0 -240.51558    0    5    0.75252 -240.51558      -     -   14s
H    0     0                       0.7119964 -240.51558      -     -   16s
H    0     0                       0.7119964 -240.51558      -     -   16s
     0     0 -204.74091    0    7    0.71200 -204.74091      -     -   16s
H    0     0                       0.7119964 -204.74091      -     -   17s
     0     0 -204.13853    0    8    0.71200 -204.13853      -     -   17s
     0     0 -203.67743    0    8    0.71200 -203.67743      -     -   17s
     0     0 -193.23865    0    7    0.71200 -193.23865      -     -   17s
     0     0 -193.19494    0    7    0.71200 -193.19494      -     -   17s
     0     0 -189.32088    0    8    0.71200 -189.32088      -     -   17s
     0     0 -188.41643    0    8    0.71200 -188.41643      -     -   17s
     0     0 -188.36906    0    8    0.71200 -188.36906      -     -   17s
     0     0 -184.81872    0    8    0.71200 -184.81872      -     -   17s
H    0     0                       0.7119964 -184.81872      -     -   18s
     0     0 -184.46647    0   10    0.71200 -184.46647      -     -   18s
     0     0 -184.36494    0   10    0.71200 -184.36494      -     -   18s
     0     0 -182.77310    0    9    0.71200 -182.77310      -     -   18s
H    0     0                       0.7119964 -182.77310      -     -   18s
     0     2 -182.77310    0    9    0.71200 -182.77310      -     -   19s
    77    29  -29.99296   11    -    0.71200  -86.30255      -   4.1   20s

Cutting planes:
  Cover: 1
  Clique: 1
  MIR: 8
  Lazy constraints: 80

Explored 697 nodes (3264 simplex iterations) in 25.18 seconds
Thread count was 8 (of 8 available processors)

Solution count 4: 0.711996 0.711996 0.752524 0.758065 

Optimal solution found (tolerance 1.00e-04)
Best objective 7.119963617705e-01, best bound 7.119963617705e-01, gap 0.0000%

User-callback calls 1672, time in user-callback 28.37 sec
